0 34 97
1 72 115
2 81 118
3 104 124
4 88 129
5 93 127
6 95 127
7 121 125
8 119 124
9 110 123
10 117 122
11 111 121
12 87 121
13 86 120
14 27 118
15 116 120
16 110 120
17 108 120
18 101 118
19 110 116
20 28 114
21 20 116
22 22 118
23 37 118
24 109 121
25 95 122
26 121 121
27 99 121
28 119 122
29 123 123
30 49 123
31 68 122
32 121 122
33 121 121
34 106 120
35 105 119
36 113 118
37 115 117
38 105 116
39 113 115
40 111 114
41 108 113
42 104 112
43 104 111
44 98 114
45 106 112
46 4 109
47 87 108
48 90 107
49 34 105
50 90 106
51 98 107
52 78 109
53 92 108
54 94 107
55 98 103
56 95 101
57 95 98
58 62 101
59 64 99
60 8 100
61 91 101
62 91 104
63 85 103
64 98 102
65 33 105
66 88 106
67 6 106
68 102 105
69 97 105
70 105 105
71 104 105
72 5 103
73 96 105
74 99 106
75 103 107
76 91 107
77 79 106
78 83 106
79 77 105
80 95 104
81 91 103
82 24 102
83 93 101
84 99 99
85 99 99
86 97 98
87 62 97
88 70 95
89 90 93
90 84 92
91 76 91
92 85 89
93 69 89
94 89 90
95 88 89
96 75 90
97 84 85
98 83 83
99 79 82
100 75 83
101 66 83
102 76 83
103 81 81
104 78 80
105 1 81
106 92 92
107 71 93
108 40 92
109 81 91
110 73 89
111 74 89
112 86 88
113 86 86
114 43 85
115 81 81
116 78 80
117 79 80
118 55 78
119 43 76
120 43 76
121 66 76
122 65 74
123 71 73
124 56 70
125 66 68
126 65 66
127 65 66
128 56 65
129 50 62
130 52 60
131 56 58
132 48 56
133 54 55
134 53 56
135 48 55
136 54 55
137 44 52
138 43 50
139 45 49
140 45 46
141 46 46
142 37 45
143 47 49
144 48 48
145 40 46
146 26 47
147 41 47
148 43 46
149 44 47
150 33 46
151 26 43
152 32 43
153 31 41
154 31 39
155 38 40
156 39 39
157 17 38
158 35 35
159 30 34
160 23 34
161 35 35
162 27 34
163 27 33
164 16 33
165 31 32
166 23 30
167 27 28
168 16 27
169 25 27
170 24 31
171 30 32
172 32 32
173 19 31
174 28 32
175 25 32
176 31 31
177 29 32
178 28 30
179 27 27
180 22 26
181 21 26
182 27 27
183 24 26
184 16 24
185 21 23
186 14 22
187 12 24
188 19 22
189 16 21
190 19 21
191 19 20
192 15 18
193 13 18
194 15 18
195 14 17
196 14 15
197 13 15
198 4 15
199 14 14
200 11 14
201 16 16
202 14 15
203 14 14
204 8 16
205 10 14
206 8 12
207 8 10
208 3 9
209 8 8
210 5 7
211 7 7
212 4 6
213 4 5
214 4 5
215 5 5
216 3 4
217 1 3
218 2 2
219 1 1
220 1 2
221 1 1

